SAT
-62 -100 45 65 58 -70 -48 73 -10 -85 -66 78 -88 -94 -5 52 -87 54 -51 -49 -20 86 -97 -82 -34 24 19 -83 -25 -15 9 81 93 -47 -1 99 -95 -90 -69 3 23 60 -29 -42 7 -67 56 -64 -37 11 -53 27 2 -46 -44 35 41 92 28 -71 59 -12 -50 55 84 18 -91 68 31 -63 -13 -21 -4 40 -8 30 14 32 -39 80 79 -76 -96 61 -16 38 98 17 75 26 43 -74 -36 -89 6 22 33 -72 -77 57 0
